db/data/24460253602170075031285119040285232025.z3.out
-------------------
2500.123034021
